(declare-fun src_reg_15_69 () (_ BitVec 32))
(declare-fun src_reg_15_19 () (_ BitVec 32))
(declare-fun src_reg_15_68 () (_ BitVec 64))
(declare-fun src_reg_15_18 () (_ BitVec 64))
(declare-fun src_reg_15_67 () (_ BitVec 64))
(declare-fun src_reg_15_17 () (_ BitVec 64))
(declare-fun src_reg_15_66 () (_ BitVec 64))
(declare-fun src_reg_15_16 () (_ BitVec 64))
(declare-fun src_reg_15_65 () (_ BitVec 64))
(declare-fun src_reg_15_15 () (_ BitVec 64))
(declare-fun src_reg_15_64 () (_ BitVec 64))
(declare-fun src_reg_15_14 () (_ BitVec 64))
(declare-fun src_reg_15_63 () (_ BitVec 64))
(declare-fun src_reg_15_13 () (_ BitVec 64))
(declare-fun src_reg_15_62 () (_ BitVec 32))
(declare-fun src_reg_15_12 () (_ BitVec 32))
(declare-fun src_reg_15_61 () (_ BitVec 32))
(declare-fun src_reg_15_11 () (_ BitVec 32))
(declare-fun src_reg_15_60 () (_ BitVec 32))
(declare-fun dst_reg_15_59 () (_ BitVec 32))
(declare-fun dst_reg_15_9 () (_ BitVec 32))
(declare-fun dst_reg_15_58 () (_ BitVec 64))
(declare-fun dst_reg_15_57 () (_ BitVec 64))
(declare-fun dst_reg_15_56 () (_ BitVec 64))
(declare-fun dst_reg_15_55 () (_ BitVec 64))
(declare-fun dst_reg_15_54 () (_ BitVec 64))
(declare-fun dst_reg_15_53 () (_ BitVec 64))
(declare-fun dst_reg_15_52 () (_ BitVec 32))
(declare-fun dst_reg_15_2 () (_ BitVec 32))
(declare-fun dst_reg_15_51 () (_ BitVec 32))
(declare-fun dst_reg_15_1 () (_ BitVec 32))
(declare-fun dst_reg_15_50 () (_ BitVec 32))
(declare-fun or10.i.i.i_15_32 () (_ BitVec 64))
(declare-fun cond46.i.i.i_15_40 () (_ BitVec 64))
(declare-fun i19.i.i.i_15_38 () (_ BitVec 64))
(declare-fun cmp41.i.i.i_15_39 () (_ BitVec 1))
(declare-fun dst_reg_15_8 () (_ BitVec 64))
(declare-fun and.i.i.i_15_25 () (_ BitVec 64))
(declare-fun cond31.i.i.i_15_37 () (_ BitVec 64))
(declare-fun i18.i.i.i_15_35 () (_ BitVec 64))
(declare-fun cmp26.i.i.i_15_36 () (_ BitVec 1))
(declare-fun dst_reg_15_7 () (_ BitVec 64))
(declare-fun cond19.i.i.i_15_34 () (_ BitVec 64))
(declare-fun i17.i.i.i_15_31 () (_ BitVec 64))
(declare-fun cmp14.i.i.i_15_33 () (_ BitVec 1))
(declare-fun and6.i.i.i_15_27 () (_ BitVec 64))
(declare-fun dst_reg_15_6 () (_ BitVec 64))
(declare-fun cond.i.i.i_15_30 () (_ BitVec 64))
(declare-fun i.i.i.i_15_28 () (_ BitVec 64))
(declare-fun cmp2.i.i.i_15_29 () (_ BitVec 1))
(declare-fun dst_reg_15_5 () (_ BitVec 64))
(declare-fun i6.i.i_15_23 () (_ BitVec 64))
(declare-fun i4.i.i_15_22 () (_ BitVec 64))
(declare-fun dst_reg_15_4 () (_ BitVec 64))
(declare-fun dst_reg_15_3 () (_ BitVec 64))
(declare-fun src_reg_15_10 () (_ BitVec 32))
(declare-fun dst_reg_15_0 () (_ BitVec 32))
(assert (and (= dst_reg_15_0 dst_reg_15_0)
     (= dst_reg_15_1 dst_reg_15_1)
     (= dst_reg_15_2 dst_reg_15_2)
     (= dst_reg_15_3 dst_reg_15_3)
     (= dst_reg_15_4 dst_reg_15_4)
     (= dst_reg_15_5 dst_reg_15_5)
     (= dst_reg_15_6 dst_reg_15_6)
     (= dst_reg_15_7 dst_reg_15_7)
     (= dst_reg_15_8 dst_reg_15_8)
     (= dst_reg_15_9 dst_reg_15_9)
     (= src_reg_15_10 src_reg_15_10)
     (= src_reg_15_11 src_reg_15_11)
     (= src_reg_15_12 src_reg_15_12)
     (= src_reg_15_13 src_reg_15_13)
     (= src_reg_15_14 src_reg_15_14)
     (= src_reg_15_15 src_reg_15_15)
     (= src_reg_15_16 src_reg_15_16)
     (= src_reg_15_17 src_reg_15_17)
     (= src_reg_15_18 src_reg_15_18)
     (= src_reg_15_19 src_reg_15_19)
     (= dst_reg_15_3 i4.i.i_15_22)
     (= dst_reg_15_4 i6.i.i_15_23)
     (= and.i.i.i_15_25 (bvand i4.i.i_15_22 #x00000000ffffffff))
     (= and6.i.i.i_15_27 (bvand i6.i.i_15_23 #x00000000ffffffff))
     (= dst_reg_15_5 i.i.i.i_15_28)
     (ite (bvsgt i.i.i.i_15_28 and.i.i.i_15_25)
          (= cmp2.i.i.i_15_29 #b1)
          (= cmp2.i.i.i_15_29 #b0))
     (ite (= cmp2.i.i.i_15_29 #b1)
          (= cond.i.i.i_15_30 i.i.i.i_15_28)
          (= cond.i.i.i_15_30 and.i.i.i_15_25))
     (= dst_reg_15_6 i17.i.i.i_15_31)
     (= or10.i.i.i_15_32 (bvor and6.i.i.i_15_27 and.i.i.i_15_25))
     (ite (bvslt i17.i.i.i_15_31 or10.i.i.i_15_32)
          (= cmp14.i.i.i_15_33 #b1)
          (= cmp14.i.i.i_15_33 #b0))
     (ite (= cmp14.i.i.i_15_33 #b1)
          (= cond19.i.i.i_15_34 i17.i.i.i_15_31)
          (= cond19.i.i.i_15_34 or10.i.i.i_15_32))
     (= dst_reg_15_7 i18.i.i.i_15_35)
     (ite (bvugt i18.i.i.i_15_35 and.i.i.i_15_25)
          (= cmp26.i.i.i_15_36 #b1)
          (= cmp26.i.i.i_15_36 #b0))
     (ite (= cmp26.i.i.i_15_36 #b1)
          (= cond31.i.i.i_15_37 i18.i.i.i_15_35)
          (= cond31.i.i.i_15_37 and.i.i.i_15_25))
     (= dst_reg_15_8 i19.i.i.i_15_38)
     (ite (bvult i19.i.i.i_15_38 or10.i.i.i_15_32)
          (= cmp41.i.i.i_15_39 #b1)
          (= cmp41.i.i.i_15_39 #b0))
     (ite (= cmp41.i.i.i_15_39 #b1)
          (= cond46.i.i.i_15_40 i19.i.i.i_15_38)
          (= cond46.i.i.i_15_40 or10.i.i.i_15_32))
     (= #x00000001 dst_reg_15_50)
     (= dst_reg_15_1 dst_reg_15_51)
     (= dst_reg_15_2 dst_reg_15_52)
     (= #x0000000000000000 dst_reg_15_53)
     (= #xffffffffffffffff dst_reg_15_54)
     (= #x8000000000000000 dst_reg_15_55)
     (= #x7fffffffffffffff dst_reg_15_56)
     (= #x0000000000000000 dst_reg_15_57)
     (= #xffffffffffffffff dst_reg_15_58)
     (= dst_reg_15_9 dst_reg_15_59)
     (= #x00000001 src_reg_15_60)
     (= src_reg_15_11 src_reg_15_61)
     (= src_reg_15_12 src_reg_15_62)
     (= src_reg_15_13 src_reg_15_63)
     (= src_reg_15_14 src_reg_15_64)
     (= src_reg_15_15 src_reg_15_65)
     (= src_reg_15_16 src_reg_15_66)
     (= src_reg_15_17 src_reg_15_67)
     (= src_reg_15_18 src_reg_15_68)
     (= src_reg_15_19 src_reg_15_69)))

;{"dst_reg":["dst_reg_15_0",[""],"dst_reg_15_1","dst_reg_15_2",["dst_reg_15_3","dst_reg_15_4"],"dst_reg_15_5","dst_reg_15_6","dst_reg_15_7","dst_reg_15_8","dst_reg_15_9"],"src_reg":["src_reg_15_10",[""],"src_reg_15_11","src_reg_15_12",["src_reg_15_13","src_reg_15_14"],"src_reg_15_15","src_reg_15_16","src_reg_15_17","src_reg_15_18","src_reg_15_19"]}
;{"dst_reg":["dst_reg_15_50",[""],"dst_reg_15_51","dst_reg_15_52",["dst_reg_15_53","dst_reg_15_54"],"dst_reg_15_55","dst_reg_15_56","dst_reg_15_57","dst_reg_15_58","dst_reg_15_59"],"src_reg":["src_reg_15_60",[""],"src_reg_15_61","src_reg_15_62",["src_reg_15_63","src_reg_15_64"],"src_reg_15_65","src_reg_15_66","src_reg_15_67","src_reg_15_68","src_reg_15_69"]}
